100
128
15
59
58
15
45
64
10
20
40
8
9
40
15
59
20
61
55
46
56
43
48
62
38
40
56
23
23
61
20
12
42
16
53
54
27
4
47
32
40
41
24
51
17
5
51
20
28
41
21
27
48
32
48
39
16
20
34
50
53
45
26
32
59
25
2
57
22
5
6
1
18
32
57
43
39
20
4
47
5
4
23
42
19
19
33
35
27
33
35
28
37
18
23
3
28
6
2
26
41
61